============================[ Problem Statistics ]=============================|                                                                             ||  Number of variables:          4242                                         ||  Number of clauses:            9811                                         ||  Parse time:                   0.22 s                                       ||                                                                             |============================[ Search Statistics ]==============================| Conflicts |          ORIGINAL         |          LEARNT          | Progress ||           |    Vars  Clauses Literals |    Limit  Clauses Lit/Cl |          |===============================================================================|       100 |    1591     6016   318857 |     2205      100     53 | 62.501 % |===============================================================================restarts              : 2conflicts             : 125            (352 /sec)decisions             : 294            (0.00 % random) (828 /sec)propagations          : 9902           (27893 /sec)conflict literals     : 7485           (95.64 % deleted)CPU time              : 0.355 sSATISFIABLE